Lattice/knapsack/task/enc.txt
4556214287557000390948405712792307185041904244046278753672270617748150388989172098230715860552486736062695422774585017496128799605169948433164437478971713249975551560349188640207372037203647567659597837197481228751944297047778876973724909855632391645598377315322822642369123672945605976193250977371813279691599932656268215986808110871812483840924503667836958317548864591936863